c "644167.clq"
p edge 199 2928
e 1 17
e 1 18
e 1 19
e 1 20
e 1 21
e 1 22
e 1 24
e 1 29
e 1 33
e 1 38
e 1 40
e 1 47
e 1 52
e 1 71
e 1 72
e 1 75
e 1 83
e 1 131
e 1 132
e 1 155
e 1 174
e 2 17
e 2 18
e 2 20
e 2 21
e 2 23
e 2 26
e 2 34
e 2 35
e 2 38
e 2 39
e 2 40
e 2 46
e 2 51
e 2 64
e 2 70
e 2 73
e 2 86
e 2 96
e 2 98
e 2 131
e 2 142
e 2 145
e 2 155
e 2 159
e 2 176
e 2 182
e 2 191
e 2 195
e 3 17
e 3 18
e 3 19
e 3 20
e 3 21
e 3 22
e 3 23
e 3 24
e 3 26
e 3 28
e 3 32
e 3 33
e 3 35
e 3 37
e 3 38
e 3 39
e 3 41
e 3 46
e 3 47
e 3 51
e 3 56
e 3 61
e 3 65
e 3 78
e 3 83
e 3 87
e 3 88
e 3 94
e 3 99
e 3 100
e 3 101
e 3 108
e 3 109
e 3 116
e 3 119
e 3 127
e 3 131
e 3 132
e 3 134
e 3 135
e 3 141
e 3 143
e 3 145
e 3 149
e 3 154
e 3 156
e 3 157
e 3 161
e 3 167
e 3 171
e 3 177
e 3 178
e 3 192
e 3 194
e 3 196
e 3 199
e 4 17
e 4 18
e 4 19
e 4 20
e 4 21
e 4 22
e 4 23
e 4 25
e 4 26
e 4 29
e 4 30
e 4 32
e 4 39
e 4 43
e 4 54
e 4 55
e 4 66
e 4 74
e 4 79
e 4 86
e 4 94
e 4 99
e 4 113
e 4 120
e 4 128
e 4 130
e 4 134
e 4 137
e 4 140
e 4 149
e 4 150
e 4 161
e 4 172
e 4 197
e 5 17
e 5 18
e 5 19
e 5 20
e 5 21
e 5 22
e 5 23
e 5 25
e 5 26
e 5 27
e 5 28
e 5 30
e 5 32
e 5 36
e 5 37
e 5 38
e 5 40
e 5 41
e 5 45
e 5 47
e 5 50
e 5 52
e 5 54
e 5 57
e 5 58
e 5 59
e 5 60
e 5 63
e 5 66
e 5 69
e 5 74
e 5 81
e 5 82
e 5 91
e 5 97
e 5 99
e 5 109
e 5 113
e 5 129
e 5 147
e 5 171
e 5 174
e 5 182
e 5 196
e 6 17
e 6 18
e 6 21
e 6 22
e 6 24
e 6 25
e 6 27
e 6 40
e 6 43
e 6 46
e 6 54
e 6 55
e 6 63
e 6 70
e 6 72
e 6 90
e 6 129
e 6 141
e 6 149
e 6 163
e 6 176
e 6 180
e 6 184
e 6 190
e 6 191
e 6 198
e 7 17
e 7 18
e 7 19
e 7 20
e 7 21
e 7 22
e 7 23
e 7 24
e 7 25
e 7 27
e 7 29
e 7 32
e 7 33
e 7 34
e 7 36
e 7 37
e 7 39
e 7 42
e 7 44
e 7 45
e 7 47
e 7 52
e 7 53
e 7 54
e 7 59
e 7 60
e 7 61
e 7 64
e 7 65
e 7 70
e 7 72
e 7 82
e 7 85
e 7 89
e 7 90
e 7 94
e 7 105
e 7 107
e 7 110
e 7 111
e 7 114
e 7 118
e 7 119
e 7 120
e 7 123
e 7 128
e 7 138
e 7 139
e 7 152
e 7 156
e 7 159
e 7 161
e 7 169
e 7 171
e 7 176
e 7 178
e 7 190
e 7 191
e 7 193
e 8 17
e 8 19
e 8 24
e 8 27
e 8 31
e 8 48
e 8 49
e 8 63
e 8 91
e 8 98
e 8 113
e 8 135
e 9 17
e 9 18
e 9 19
e 9 20
e 9 22
e 9 23
e 9 25
e 9 28
e 9 31
e 9 32
e 9 34
e 9 35
e 9 37
e 9 38
e 9 39
e 9 41
e 9 43
e 9 45
e 9 47
e 9 49
e 9 51
e 9 53
e 9 58
e 9 63
e 9 66
e 9 72
e 9 74
e 9 83
e 9 86
e 9 91
e 9 101
e 9 108
e 9 123
e 9 124
e 9 132
e 9 135
e 9 137
e 9 158
e 9 192
e 9 194
e 10 17
e 10 18
e 10 19
e 10 21
e 10 22
e 10 23
e 10 30
e 10 34
e 10 36
e 10 39
e 10 47
e 10 62
e 10 72
e 10 77
e 10 79
e 10 80
e 10 92
e 10 94
e 10 103
e 10 130
e 10 145
e 10 152
e 10 171
e 10 173
e 10 184
e 10 199
e 11 17
e 11 18
e 11 19
e 11 20
e 11 23
e 11 24
e 11 26
e 11 33
e 11 34
e 11 35
e 11 43
e 11 45
e 11 49
e 11 50
e 11 53
e 11 60
e 11 61
e 11 68
e 11 75
e 11 79
e 11 88
e 11 89
e 11 99
e 11 101
e 11 105
e 11 107
e 11 141
e 11 142
e 11 147
e 11 155
e 11 157
e 11 163
e 11 173
e 11 179
e 11 193
e 12 17
e 12 18
e 12 19
e 12 20
e 12 22
e 12 23
e 12 24
e 12 26
e 12 28
e 12 29
e 12 30
e 12 35
e 12 42
e 12 43
e 12 47
e 12 54
e 12 57
e 12 64
e 12 71
e 12 73
e 12 91
e 12 93
e 12 96
e 12 116
e 12 136
e 12 137
e 12 140
e 12 144
e 12 150
e 12 152
e 12 153
e 12 175
e 13 17
e 13 18
e 13 19
e 13 20
e 13 21
e 13 23
e 13 27
e 13 28
e 13 30
e 13 31
e 13 34
e 13 36
e 13 41
e 13 44
e 13 55
e 13 63
e 13 66
e 13 78
e 13 96
e 13 128
e 13 132
e 13 135
e 13 137
e 13 144
e 13 164
e 13 165
e 13 183
e 13 185
e 14 17
e 14 18
e 14 19
e 14 20
e 14 21
e 14 22
e 14 23
e 14 24
e 14 25
e 14 27
e 14 28
e 14 30
e 14 31
e 14 39
e 14 40
e 14 44
e 14 60
e 14 62
e 14 67
e 14 68
e 14 69
e 14 72
e 14 76
e 14 79
e 14 80
e 14 83
e 14 96
e 14 103
e 14 104
e 14 107
e 14 110
e 14 120
e 14 123
e 14 129
e 14 132
e 14 134
e 14 145
e 14 149
e 14 155
e 14 157
e 14 167
e 14 169
e 14 172
e 14 190
e 15 17
e 15 18
e 15 19
e 15 20
e 15 21
e 15 22
e 15 23
e 15 25
e 15 26
e 15 27
e 15 28
e 15 29
e 15 31
e 15 32
e 15 33
e 15 34
e 15 36
e 15 37
e 15 41
e 15 43
e 15 46
e 15 48
e 15 49
e 15 57
e 15 60
e 15 61
e 15 62
e 15 63
e 15 69
e 15 73
e 15 75
e 15 92
e 15 95
e 15 96
e 15 103
e 15 104
e 15 110
e 15 118
e 15 122
e 15 128
e 15 136
e 15 139
e 15 154
e 15 156
e 15 164
e 15 177
e 15 180
e 15 183
e 15 195
e 16 17
e 16 18
e 16 19
e 16 20
e 16 21
e 16 24
e 16 25
e 16 28
e 16 29
e 16 33
e 16 35
e 16 42
e 16 44
e 16 46
e 16 67
e 16 69
e 16 70
e 16 72
e 16 77
e 16 86
e 16 87
e 16 88
e 16 92
e 16 106
e 16 108
e 16 113
e 16 158
e 16 173
e 17 18
e 17 19
e 17 20
e 17 21
e 17 22
e 17 23
e 17 24
e 17 25
e 17 26
e 17 27
e 17 28
e 17 29
e 17 31
e 17 34
e 17 36
e 17 37
e 17 38
e 17 39
e 17 40
e 17 42
e 17 43
e 17 49
e 17 51
e 17 52
e 17 53
e 17 56
e 17 57
e 17 59
e 17 64
e 17 66
e 17 69
e 17 70
e 17 73
e 17 75
e 17 77
e 17 79
e 17 80
e 17 83
e 17 87
e 17 90
e 17 91
e 17 93
e 17 97
e 17 103
e 17 110
e 17 113
e 17 117
e 17 122
e 17 128
e 17 131
e 17 143
e 17 150
e 17 155
e 17 163
e 17 167
e 17 169
e 17 171
e 17 177
e 17 178
e 17 192
e 17 199
e 18 19
e 18 20
e 18 21
e 18 22
e 18 24
e 18 25
e 18 26
e 18 27
e 18 28
e 18 29
e 18 30
e 18 31
e 18 34
e 18 35
e 18 37
e 18 41
e 18 42
e 18 46
e 18 49
e 18 52
e 18 55
e 18 56
e 18 58
e 18 59
e 18 61
e 18 63
e 18 71
e 18 81
e 18 85
e 18 87
e 18 94
e 18 97
e 18 98
e 18 99
e 18 100
e 18 112
e 18 121
e 18 122
e 18 145
e 18 159
e 18 164
e 18 165
e 18 179
e 18 187
e 18 197
e 19 20
e 19 21
e 19 22
e 19 23
e 19 24
e 19 25
e 19 26
e 19 27
e 19 28
e 19 29
e 19 30
e 19 31
e 19 32
e 19 33
e 19 34
e 19 35
e 19 38
e 19 40
e 19 41
e 19 42
e 19 44
e 19 48
e 19 49
e 19 50
e 19 53
e 19 54
e 19 55
e 19 56
e 19 57
e 19 58
e 19 60
e 19 64
e 19 65
e 19 66
e 19 69
e 19 70
e 19 76
e 19 78
e 19 82
e 19 84
e 19 87
e 19 93
e 19 94
e 19 95
e 19 96
e 19 97
e 19 102
e 19 107
e 19 108
e 19 109
e 19 111
e 19 112
e 19 114
e 19 115
e 19 116
e 19 119
e 19 124
e 19 127
e 19 130
e 19 133
e 19 134
e 19 135
e 19 136
e 19 139
e 19 147
e 19 148
e 19 149
e 19 150
e 19 151
e 19 154
e 19 157
e 19 159
e 19 161
e 19 163
e 19 166
e 19 167
e 19 168
e 19 173
e 19 174
e 19 176
e 19 182
e 19 183
e 19 186
e 19 187
e 19 194
e 19 199
e 20 21
e 20 22
e 20 23
e 20 24
e 20 25
e 20 26
e 20 27
e 20 28
e 20 29
e 20 30
e 20 31
e 20 32
e 20 33
e 20 36
e 20 38
e 20 45
e 20 47
e 20 49
e 20 50
e 20 51
e 20 59
e 20 60
e 20 61
e 20 71
e 20 80
e 20 88
e 20 100
e 20 101
e 20 106
e 20 112
e 20 113
e 20 119
e 20 120
e 20 128
e 20 135
e 20 148
e 20 151
e 20 153
e 20 163
e 20 173
e 20 175
e 20 179
e 20 180
e 20 181
e 21 22
e 21 24
e 21 25
e 21 26
e 21 27
e 21 29
e 21 32
e 21 33
e 21 34
e 21 36
e 21 37
e 21 38
e 21 41
e 21 42
e 21 47
e 21 48
e 21 50
e 21 52
e 21 55
e 21 60
e 21 62
e 21 67
e 21 68
e 21 71
e 21 73
e 21 77
e 21 80
e 21 81
e 21 82
e 21 84
e 21 88
e 21 92
e 21 95
e 21 97
e 21 100
e 21 101
e 21 102
e 21 104
e 21 107
e 21 108
e 21 110
e 21 111
e 21 115
e 21 126
e 21 130
e 21 133
e 21 138
e 21 139
e 21 150
e 21 157
e 21 159
e 21 160
e 21 186
e 21 188
e 21 190
e 21 191
e 22 23
e 22 24
e 22 25
e 22 26
e 22 27
e 22 28
e 22 30
e 22 34
e 22 38
e 22 39
e 22 41
e 22 43
e 22 44
e 22 46
e 22 47
e 22 51
e 22 55
e 22 56
e 22 63
e 22 67
e 22 68
e 22 69
e 22 71
e 22 73
e 22 74
e 22 78
e 22 85
e 22 86
e 22 89
e 22 90
e 22 95
e 22 97
e 22 101
e 22 108
e 22 109
e 22 110
e 22 119
e 22 120
e 22 125
e 22 129
e 22 130
e 22 135
e 22 140
e 22 142
e 22 143
e 22 144
e 22 145
e 22 147
e 22 148
e 22 151
e 22 153
e 22 155
e 22 156
e 22 166
e 22 171
e 22 177
e 22 189
e 22 190
e 22 195
e 23 24
e 23 25
e 23 26
e 23 27
e 23 29
e 23 30
e 23 31
e 23 33
e 23 34
e 23 35
e 23 38
e 23 39
e 23 41
e 23 43
e 23 44
e 23 45
e 23 48
e 23 53
e 23 54
e 23 57
e 23 58
e 23 64
e 23 68
e 23 69
e 23 73
e 23 85
e 23 86
e 23 95
e 23 96
e 23 102
e 23 109
e 23 111
e 23 116
e 23 117
e 23 118
e 23 126
e 23 128
e 23 131
e 23 135
e 23 137
e 23 140
e 23 143
e 23 158
e 23 162
e 23 165
e 23 168
e 23 169
e 23 171
e 23 175
e 23 181
e 23 182
e 23 184
e 23 185
e 23 191
e 23 192
e 23 199
e 24 25
e 24 26
e 24 28
e 24 29
e 24 30
e 24 31
e 24 32
e 24 33
e 24 35
e 24 36
e 24 37
e 24 44
e 24 45
e 24 47
e 24 48
e 24 49
e 24 50
e 24 51
e 24 52
e 24 55
e 24 56
e 24 57
e 24 60
e 24 64
e 24 65
e 24 66
e 24 67
e 24 68
e 24 70
e 24 73
e 24 77
e 24 78
e 24 79
e 24 80
e 24 83
e 24 87
e 24 88
e 24 91
e 24 93
e 24 97
e 24 98
e 24 101
e 24 107
e 24 108
e 24 112
e 24 115
e 24 131
e 24 133
e 24 135
e 24 136
e 24 137
e 24 140
e 24 142
e 24 146
e 24 147
e 24 149
e 24 150
e 24 155
e 24 157
e 24 163
e 24 165
e 24 169
e 24 180
e 24 181
e 24 183
e 24 189
e 24 191
e 24 198
e 24 199
e 25 26
e 25 27
e 25 28
e 25 29
e 25 31
e 25 32
e 25 33
e 25 34
e 25 35
e 25 36
e 25 37
e 25 38
e 25 46
e 25 47
e 25 48
e 25 49
e 25 50
e 25 52
e 25 53
e 25 56
e 25 57
e 25 59
e 25 61
e 25 62
e 25 66
e 25 69
e 25 72
e 25 78
e 25 85
e 25 89
e 25 95
e 25 100
e 25 109
e 25 118
e 25 120
e 25 125
e 25 127
e 25 130
e 25 144
e 25 151
e 25 152
e 25 154
e 25 165
e 25 179
e 25 182
e 25 185
e 25 196
e 25 197
e 26 27
e 26 29
e 26 30
e 26 31
e 26 32
e 26 34
e 26 37
e 26 39
e 26 41
e 26 42
e 26 43
e 26 47
e 26 48
e 26 49
e 26 52
e 26 53
e 26 58
e 26 62
e 26 73
e 26 74
e 26 75
e 26 77
e 26 79
e 26 81
e 26 82
e 26 83
e 26 84
e 26 89
e 26 90
e 26 95
e 26 96
e 26 101
e 26 103
e 26 106
e 26 108
e 26 109
e 26 118
e 26 121
e 26 136
e 26 146
e 26 148
e 26 152
e 26 162
e 26 168
e 26 169
e 26 179
e 26 186
e 26 190
e 26 195
e 26 199
e 27 28
e 27 30
e 27 32
e 27 33
e 27 34
e 27 36
e 27 38
e 27 40
e 27 41
e 27 42
e 27 44
e 27 45
e 27 46
e 27 50
e 27 53
e 27 55
e 27 57
e 27 59
e 27 61
e 27 62
e 27 65
e 27 70
e 27 74
e 27 75
e 27 77
e 27 78
e 27 84
e 27 86
e 27 87
e 27 92
e 27 93
e 27 95
e 27 102
e 27 103
e 27 105
e 27 108
e 27 111
e 27 114
e 27 121
e 27 124
e 27 125
e 27 131
e 27 136
e 27 138
e 27 143
e 27 149
e 27 151
e 27 157
e 27 159
e 27 175
e 27 177
e 27 188
e 27 192
e 27 194
e 27 199
e 28 29
e 28 30
e 28 31
e 28 33
e 28 35
e 28 36
e 28 37
e 28 40
e 28 43
e 28 44
e 28 46
e 28 48
e 28 49
e 28 50
e 28 51
e 28 53
e 28 58
e 28 62
e 28 63
e 28 65
e 28 68
e 28 69
e 28 70
e 28 71
e 28 74
e 28 75
e 28 78
e 28 80
e 28 83
e 28 85
e 28 86
e 28 87
e 28 95
e 28 100
e 28 104
e 28 105
e 28 106
e 28 111
e 28 116
e 28 121
e 28 124
e 28 131
e 28 133
e 28 143
e 28 144
e 28 147
e 28 148
e 28 150
e 28 154
e 28 166
e 28 169
e 28 170
e 28 177
e 28 185
e 28 188
e 28 189
e 28 193
e 28 198
e 29 30
e 29 31
e 29 32
e 29 36
e 29 37
e 29 39
e 29 40
e 29 45
e 29 50
e 29 51
e 29 52
e 29 57
e 29 59
e 29 61
e 29 62
e 29 66
e 29 67
e 29 72
e 29 76
e 29 80
e 29 89
e 29 96
e 29 106
e 29 113
e 29 129
e 29 132
e 29 138
e 29 153
e 29 154
e 29 156
e 29 172
e 29 177
e 29 180
e 29 181
e 29 185
e 29 190
e 29 191
e 30 31
e 30 32
e 30 39
e 30 40
e 30 42
e 30 43
e 30 44
e 30 51
e 30 52
e 30 53
e 30 54
e 30 55
e 30 56
e 30 60
e 30 61
e 30 66
e 30 67
e 30 70
e 30 71
e 30 74
e 30 75
e 30 76
e 30 77
e 30 82
e 30 90
e 30 92
e 30 95
e 30 97
e 30 98
e 30 99
e 30 106
e 30 110
e 30 113
e 30 114
e 30 115
e 30 117
e 30 121
e 30 122
e 30 126
e 30 127
e 30 132
e 30 141
e 30 142
e 30 144
e 30 149
e 30 157
e 30 162
e 30 164
e 30 179
e 30 181
e 30 184
e 30 195
e 30 197
e 30 199
e 31 32
e 31 33
e 31 35
e 31 39
e 31 42
e 31 46
e 31 48
e 31 49
e 31 50
e 31 51
e 31 52
e 31 53
e 31 56
e 31 58
e 31 62
e 31 64
e 31 65
e 31 66
e 31 68
e 31 74
e 31 75
e 31 76
e 31 77
e 31 79
e 31 86
e 31 87
e 31 88
e 31 89
e 31 92
e 31 93
e 31 101
e 31 105
e 31 111
e 31 114
e 31 123
e 31 125
e 31 126
e 31 128
e 31 130
e 31 139
e 31 142
e 31 144
e 31 146
e 31 148
e 31 149
e 31 150
e 31 153
e 31 154
e 31 155
e 31 158
e 31 161
e 31 162
e 31 165
e 31 166
e 31 172
e 31 173
e 31 175
e 31 176
e 31 197
e 32 33
e 32 35
e 32 36
e 32 43
e 32 48
e 32 51
e 32 53
e 32 58
e 32 62
e 32 67
e 32 70
e 32 71
e 32 72
e 32 73
e 32 74
e 32 76
e 32 79
e 32 85
e 32 91
e 32 98
e 32 99
e 32 105
e 32 109
e 32 110
e 32 116
e 32 118
e 32 121
e 32 125
e 32 127
e 32 129
e 32 132
e 32 133
e 32 136
e 32 138
e 32 140
e 32 144
e 32 152
e 32 153
e 32 165
e 32 167
e 32 168
e 32 176
e 32 178
e 32 183
e 32 186
e 32 187
e 32 190
e 32 191
e 32 196
e 33 35
e 33 36
e 33 37
e 33 39
e 33 40
e 33 41
e 33 42
e 33 44
e 33 46
e 33 54
e 33 59
e 33 60
e 33 65
e 33 69
e 33 74
e 33 79
e 33 108
e 33 112
e 33 123
e 33 125
e 33 128
e 33 129
e 33 142
e 33 143
e 33 172
e 33 174
e 33 175
e 33 187
e 33 190
e 33 197
e 34 35
e 34 37
e 34 39
e 34 40
e 34 44
e 34 45
e 34 46
e 34 48
e 34 50
e 34 51
e 34 53
e 34 57
e 34 60
e 34 61
e 34 63
e 34 65
e 34 66
e 34 68
e 34 75
e 34 81
e 34 91
e 34 93
e 34 96
e 34 103
e 34 107
e 34 108
e 34 109
e 34 110
e 34 115
e 34 121
e 34 125
e 34 129
e 34 130
e 34 131
e 34 134
e 34 135
e 34 140
e 34 148
e 34 167
e 34 173
e 34 178
e 34 179
e 34 187
e 34 189
e 34 190
e 34 191
e 34 192
e 34 193
e 35 36
e 35 38
e 35 42
e 35 43
e 35 44
e 35 45
e 35 47
e 35 50
e 35 52
e 35 54
e 35 55
e 35 58
e 35 59
e 35 62
e 35 64
e 35 67
e 35 73
e 35 76
e 35 82
e 35 83
e 35 84
e 35 85
e 35 91
e 35 92
e 35 94
e 35 96
e 35 97
e 35 106
e 35 110
e 35 112
e 35 115
e 35 118
e 35 120
e 35 133
e 35 135
e 35 140
e 35 142
e 35 152
e 35 156
e 35 158
e 35 170
e 35 180
e 35 182
e 36 37
e 36 38
e 36 40
e 36 41
e 36 43
e 36 44
e 36 46
e 36 47
e 36 51
e 36 56
e 36 61
e 36 62
e 36 64
e 36 65
e 36 75
e 36 78
e 36 84
e 36 87
e 36 89
e 36 91
e 36 92
e 36 98
e 36 118
e 36 122
e 36 126
e 36 131
e 36 134
e 36 155
e 36 164
e 36 166
e 36 170
e 36 171
e 36 177
e 36 178
e 36 180
e 36 181
e 36 184
e 36 186
e 36 187
e 36 198
e 37 38
e 37 40
e 37 44
e 37 45
e 37 46
e 37 51
e 37 52
e 37 57
e 37 58
e 37 64
e 37 65
e 37 70
e 37 71
e 37 76
e 37 83
e 37 89
e 37 90
e 37 94
e 37 100
e 37 104
e 37 105
e 37 106
e 37 109
e 37 112
e 37 129
e 37 137
e 37 147
e 37 157
e 37 175
e 38 40
e 38 41
e 38 42
e 38 45
e 38 54
e 38 58
e 38 62
e 38 67
e 38 68
e 38 75
e 38 76
e 38 81
e 38 82
e 38 84
e 38 88
e 38 90
e 38 95
e 38 96
e 38 100
e 38 103
e 38 104
e 38 110
e 38 116
e 38 120
e 38 123
e 38 132
e 38 133
e 38 157
e 38 173
e 38 175
e 39 41
e 39 42
e 39 43
e 39 45
e 39 48
e 39 49
e 39 50
e 39 61
e 39 62
e 39 64
e 39 65
e 39 74
e 39 75
e 39 78
e 39 81
e 39 88
e 39 98
e 39 99
e 39 100
e 39 112
e 39 114
e 39 142
e 39 147
e 39 155
e 39 160
e 39 165
e 39 168
e 39 181
e 39 189
e 39 198
e 39 199
e 40 46
e 40 49
e 40 55
e 40 56
e 40 59
e 40 63
e 40 67
e 40 68
e 40 84
e 40 93
e 40 98
e 40 120
e 40 123
e 40 124
e 40 126
e 40 131
e 40 133
e 40 136
e 40 141
e 40 146
e 40 147
e 40 152
e 40 163
e 40 167
e 40 175
e 40 194
e 40 197
e 41 42
e 41 45
e 41 53
e 41 57
e 41 60
e 41 63
e 41 65
e 41 70
e 41 82
e 41 95
e 41 99
e 41 118
e 41 121
e 41 122
e 41 142
e 41 162
e 41 185
e 41 199
e 42 45
e 42 48
e 42 66
e 42 67
e 42 69
e 42 73
e 42 79
e 42 80
e 42 89
e 42 94
e 42 102
e 42 104
e 42 108
e 42 109
e 42 129
e 42 133
e 42 136
e 42 137
e 42 139
e 42 140
e 42 159
e 42 161
e 42 168
e 42 170
e 42 185
e 42 191
e 42 195
e 42 198
e 43 50
e 43 52
e 43 56
e 43 64
e 43 73
e 43 87
e 43 93
e 43 96
e 43 102
e 43 113
e 43 117
e 43 120
e 43 122
e 43 124
e 43 137
e 43 166
e 43 188
e 44 50
e 44 52
e 44 54
e 44 57
e 44 64
e 44 66
e 44 77
e 44 83
e 44 88
e 44 90
e 44 92
e 44 104
e 44 111
e 44 113
e 44 115
e 44 119
e 44 121
e 44 133
e 44 134
e 44 135
e 44 137
e 44 138
e 44 140
e 44 143
e 44 160
e 44 168
e 44 171
e 45 48
e 45 58
e 45 59
e 45 61
e 45 63
e 45 71
e 45 79
e 45 82
e 45 106
e 45 110
e 45 111
e 45 125
e 45 127
e 45 130
e 45 134
e 45 138
e 45 139
e 45 140
e 45 144
e 45 146
e 45 161
e 45 162
e 45 185
e 45 189
e 46 47
e 46 56
e 46 59
e 46 60
e 46 68
e 46 72
e 46 82
e 46 83
e 46 97
e 46 103
e 46 105
e 46 106
e 46 110
e 46 123
e 46 125
e 46 127
e 46 131
e 46 132
e 46 143
e 46 144
e 46 146
e 46 148
e 46 154
e 46 170
e 46 176
e 46 177
e 46 185
e 46 187
e 46 191
e 46 196
e 47 48
e 47 49
e 47 54
e 47 56
e 47 58
e 47 61
e 47 63
e 47 68
e 47 72
e 47 81
e 47 86
e 47 88
e 47 91
e 47 92
e 47 104
e 47 107
e 47 114
e 47 115
e 47 118
e 47 122
e 47 125
e 47 131
e 47 135
e 47 141
e 47 143
e 47 156
e 47 158
e 47 163
e 47 181
e 47 186
e 48 51
e 48 58
e 48 62
e 48 63
e 48 72
e 48 73
e 48 74
e 48 78
e 48 81
e 48 84
e 48 87
e 48 88
e 48 97
e 48 98
e 48 100
e 48 102
e 48 104
e 48 110
e 48 111
e 48 113
e 48 116
e 48 138
e 48 143
e 48 149
e 48 152
e 48 153
e 48 181
e 48 184
e 49 55
e 49 64
e 49 76
e 49 82
e 49 85
e 49 89
e 49 90
e 49 99
e 49 102
e 49 104
e 49 107
e 49 113
e 49 115
e 49 124
e 49 125
e 49 127
e 49 134
e 49 161
e 49 184
e 49 191
e 49 193
e 50 54
e 50 55
e 50 57
e 50 58
e 50 59
e 50 63
e 50 65
e 50 66
e 50 68
e 50 71
e 50 75
e 50 84
e 50 88
e 50 90
e 50 94
e 50 102
e 50 106
e 50 124
e 50 125
e 50 146
e 50 149
e 50 153
e 50 155
e 50 174
e 50 186
e 50 189
e 50 190
e 50 196
e 51 55
e 51 73
e 51 74
e 51 76
e 51 86
e 51 91
e 51 94
e 51 112
e 51 122
e 51 133
e 51 146
e 51 166
e 51 180
e 52 53
e 52 54
e 52 56
e 52 59
e 52 80
e 52 90
e 52 93
e 52 95
e 52 106
e 52 112
e 52 117
e 52 124
e 52 128
e 52 129
e 52 153
e 52 164
e 52 167
e 52 192
e 53 54
e 53 56
e 53 59
e 53 72
e 53 76
e 53 77
e 53 79
e 53 80
e 53 84
e 53 109
e 53 117
e 53 122
e 53 123
e 53 124
e 53 126
e 53 131
e 53 136
e 53 142
e 53 154
e 53 166
e 53 169
e 53 173
e 53 193
e 54 55
e 54 61
e 54 79
e 54 80
e 54 89
e 54 91
e 54 93
e 54 99
e 54 102
e 54 104
e 54 134
e 54 144
e 54 145
e 54 147
e 54 166
e 54 175
e 55 60
e 55 66
e 55 82
e 55 94
e 55 102
e 55 108
e 55 117
e 55 129
e 55 130
e 55 138
e 55 156
e 55 163
e 55 165
e 56 57
e 56 64
e 56 65
e 56 68
e 56 76
e 56 84
e 56 88
e 56 96
e 56 98
e 56 101
e 56 102
e 56 108
e 56 117
e 56 128
e 56 144
e 56 145
e 56 151
e 56 158
e 56 161
e 56 163
e 56 165
e 56 166
e 56 184
e 56 186
e 57 60
e 57 71
e 57 72
e 57 74
e 57 76
e 57 77
e 57 84
e 57 85
e 57 86
e 57 87
e 57 95
e 57 104
e 57 105
e 57 107
e 57 115
e 57 118
e 57 137
e 57 143
e 57 149
e 57 171
e 57 172
e 57 173
e 57 175
e 57 182
e 57 187
e 57 195
e 58 65
e 58 71
e 58 81
e 58 92
e 58 93
e 58 97
e 58 105
e 58 106
e 58 116
e 58 121
e 58 123
e 58 147
e 58 150
e 58 172
e 58 198
e 59 67
e 59 69
e 59 77
e 59 98
e 59 99
e 59 100
e 59 103
e 59 105
e 59 119
e 59 127
e 59 136
e 59 140
e 59 145
e 59 160
e 59 165
e 59 176
e 59 179
e 59 182
e 59 196
e 60 67
e 60 69
e 60 70
e 60 72
e 60 75
e 60 76
e 60 78
e 60 83
e 60 84
e 60 89
e 60 90
e 60 98
e 60 99
e 60 106
e 60 111
e 60 116
e 60 120
e 60 123
e 60 144
e 60 148
e 60 159
e 60 172
e 60 180
e 61 67
e 61 76
e 61 77
e 61 82
e 61 85
e 61 87
e 61 114
e 61 117
e 61 119
e 61 121
e 61 122
e 61 123
e 61 129
e 61 132
e 61 135
e 61 141
e 61 146
e 61 147
e 61 151
e 61 154
e 61 161
e 61 164
e 61 167
e 61 177
e 61 184
e 61 194
e 62 68
e 62 69
e 62 70
e 62 74
e 62 79
e 62 80
e 62 82
e 62 84
e 62 86
e 62 87
e 62 89
e 62 95
e 62 98
e 62 101
e 62 102
e 62 103
e 62 105
e 62 126
e 62 127
e 62 132
e 62 139
e 62 140
e 62 145
e 62 146
e 62 152
e 62 158
e 62 163
e 62 168
e 62 172
e 62 175
e 62 177
e 62 180
e 62 185
e 62 189
e 62 190
e 62 195
e 62 196
e 63 71
e 63 110
e 63 138
e 63 193
e 64 67
e 64 75
e 64 78
e 64 81
e 64 83
e 64 101
e 64 113
e 64 115
e 64 116
e 64 119
e 64 154
e 64 165
e 64 180
e 65 70
e 65 80
e 65 91
e 65 99
e 65 100
e 65 103
e 65 114
e 65 132
e 65 137
e 65 140
e 65 144
e 65 159
e 65 169
e 65 170
e 65 177
e 65 178
e 65 183
e 65 186
e 65 198
e 66 78
e 66 81
e 66 131
e 66 143
e 66 145
e 66 161
e 66 170
e 66 175
e 67 77
e 67 91
e 67 107
e 67 111
e 67 114
e 67 121
e 67 133
e 67 141
e 67 157
e 67 160
e 67 162
e 67 166
e 67 181
e 67 183
e 67 193
e 68 69
e 68 81
e 68 100
e 68 102
e 68 120
e 68 126
e 68 137
e 68 138
e 68 139
e 68 152
e 68 158
e 68 199
e 69 77
e 69 86
e 69 91
e 69 93
e 69 138
e 69 165
e 69 168
e 69 172
e 69 175
e 69 180
e 69 187
e 69 192
e 69 199
e 70 71
e 70 94
e 70 103
e 70 112
e 70 113
e 70 118
e 70 161
e 70 183
e 71 73
e 71 85
e 71 86
e 71 97
e 71 100
e 71 117
e 71 119
e 71 120
e 71 121
e 71 140
e 71 151
e 71 162
e 71 171
e 71 183
e 71 197
e 72 85
e 72 86
e 72 103
e 72 105
e 72 113
e 72 132
e 72 145
e 72 156
e 72 176
e 73 78
e 73 82
e 73 94
e 73 102
e 73 114
e 73 116
e 73 125
e 73 129
e 73 130
e 73 150
e 73 151
e 73 160
e 73 165
e 73 181
e 73 189
e 73 199
e 74 80
e 74 83
e 74 85
e 74 88
e 74 103
e 74 107
e 74 109
e 74 115
e 74 116
e 74 118
e 74 122
e 74 124
e 74 127
e 74 134
e 74 146
e 74 148
e 74 159
e 74 177
e 74 181
e 74 185
e 74 186
e 74 195
e 75 90
e 75 101
e 75 131
e 75 139
e 75 153
e 75 176
e 75 179
e 75 181
e 75 188
e 75 192
e 76 79
e 76 80
e 76 81
e 76 84
e 76 85
e 76 111
e 76 125
e 76 127
e 76 130
e 76 142
e 76 158
e 76 160
e 76 163
e 76 169
e 76 172
e 76 179
e 76 182
e 76 196
e 77 78
e 77 93
e 77 109
e 77 112
e 77 120
e 77 121
e 77 149
e 77 151
e 77 157
e 78 81
e 78 108
e 78 120
e 78 141
e 78 174
e 78 179
e 79 88
e 79 92
e 79 97
e 79 117
e 79 124
e 79 138
e 79 145
e 79 151
e 79 173
e 79 188
e 79 191
e 80 81
e 80 83
e 80 92
e 80 99
e 80 119
e 80 148
e 80 156
e 80 158
e 80 164
e 80 174
e 80 181
e 80 189
e 80 193
e 80 198
e 81 85
e 81 94
e 81 96
e 81 123
e 81 124
e 81 139
e 81 147
e 81 152
e 81 179
e 82 89
e 82 93
e 82 105
e 82 116
e 82 122
e 82 132
e 82 174
e 82 188
e 83 90
e 83 92
e 83 106
e 83 114
e 83 118
e 83 119
e 83 126
e 83 128
e 83 133
e 83 142
e 83 150
e 83 154
e 83 162
e 83 163
e 83 187
e 83 188
e 84 87
e 84 94
e 84 102
e 84 107
e 84 127
e 84 160
e 84 167
e 84 188
e 85 96
e 85 112
e 85 134
e 85 155
e 85 193
e 86 93
e 86 103
e 86 114
e 86 153
e 86 154
e 86 168
e 86 178
e 86 183
e 86 192
e 86 196
e 86 198
e 87 107
e 87 124
e 87 130
e 87 137
e 87 149
e 87 172
e 87 174
e 87 182
e 88 89
e 88 90
e 88 92
e 88 95
e 88 98
e 88 107
e 88 117
e 88 139
e 88 148
e 89 107
e 89 114
e 89 120
e 89 121
e 89 153
e 89 158
e 89 169
e 89 187
e 90 97
e 90 101
e 90 115
e 90 125
e 90 136
e 90 155
e 90 164
e 90 167
e 90 183
e 90 189
e 91 115
e 91 127
e 91 138
e 91 187
e 91 193
e 91 195
e 91 198
e 92 101
e 92 108
e 92 109
e 92 114
e 92 133
e 92 159
e 92 178
e 92 185
e 92 191
e 92 195
e 92 197
e 93 97
e 93 98
e 93 113
e 93 126
e 93 128
e 93 143
e 93 160
e 93 178
e 93 186
e 94 109
e 94 110
e 94 117
e 94 125
e 94 130
e 94 142
e 94 156
e 94 160
e 94 174
e 94 194
e 95 101
e 95 124
e 95 141
e 95 171
e 95 173
e 95 174
e 96 99
e 96 104
e 96 114
e 96 119
e 96 138
e 96 162
e 96 171
e 96 184
e 96 194
e 97 100
e 97 111
e 97 117
e 97 129
e 97 159
e 97 166
e 97 168
e 97 173
e 97 176
e 97 193
e 98 122
e 98 123
e 98 169
e 98 190
e 99 100
e 99 104
e 99 116
e 99 128
e 99 160
e 99 174
e 99 178
e 100 112
e 100 117
e 100 122
e 100 158
e 100 162
e 100 163
e 100 177
e 101 111
e 101 124
e 101 160
e 101 183
e 102 105
e 102 116
e 102 142
e 102 149
e 102 178
e 103 104
e 103 141
e 103 156
e 103 186
e 104 105
e 104 127
e 104 134
e 104 139
e 104 143
e 104 146
e 104 152
e 104 153
e 104 193
e 104 194
e 105 106
e 105 126
e 105 137
e 105 139
e 105 146
e 105 157
e 105 176
e 105 187
e 106 112
e 106 126
e 106 148
e 106 158
e 106 167
e 106 176
e 107 135
e 107 184
e 108 115
e 108 122
e 108 134
e 108 136
e 108 168
e 108 172
e 108 176
e 108 183
e 108 198
e 109 119
e 109 169
e 109 182
e 109 189
e 110 111
e 110 115
e 110 119
e 110 127
e 110 128
e 110 137
e 110 142
e 110 150
e 110 166
e 110 169
e 110 189
e 110 196
e 111 112
e 111 118
e 111 123
e 111 130
e 111 146
e 111 158
e 111 162
e 112 118
e 112 123
e 112 128
e 112 133
e 112 147
e 112 150
e 112 155
e 112 160
e 112 167
e 113 117
e 113 136
e 113 141
e 113 151
e 113 154
e 113 164
e 113 170
e 113 178
e 113 195
e 114 130
e 114 134
e 114 136
e 114 144
e 114 148
e 114 166
e 114 194
e 115 140
e 115 170
e 115 177
e 116 121
e 116 126
e 116 141
e 116 166
e 116 172
e 116 179
e 116 189
e 117 147
e 117 188
e 118 119
e 118 145
e 118 147
e 118 155
e 118 156
e 118 162
e 118 188
e 118 197
e 119 138
e 119 170
e 119 192
e 120 129
e 120 141
e 120 143
e 120 145
e 120 159
e 121 135
e 121 141
e 121 146
e 121 156
e 121 161
e 121 175
e 121 180
e 121 196
e 122 133
e 122 152
e 122 153
e 122 159
e 122 161
e 122 182
e 122 196
e 122 198
e 122 199
e 123 126
e 123 170
e 124 156
e 124 167
e 124 168
e 124 170
e 125 126
e 125 141
e 125 150
e 125 163
e 126 139
e 126 176
e 126 180
e 126 194
e 126 196
e 127 157
e 127 178
e 127 190
e 128 154
e 128 174
e 129 132
e 129 146
e 129 162
e 129 177
e 130 145
e 130 153
e 130 157
e 130 161
e 130 168
e 131 168
e 131 188
e 131 195
e 133 134
e 133 136
e 133 166
e 133 182
e 133 183
e 133 194
e 133 195
e 134 156
e 134 188
e 135 150
e 135 195
e 136 139
e 136 162
e 137 155
e 137 172
e 137 174
e 138 164
e 138 170
e 138 188
e 138 198
e 139 144
e 139 164
e 139 171
e 139 182
e 139 196
e 139 197
e 140 148
e 140 152
e 140 159
e 141 164
e 141 170
e 141 193
e 142 149
e 142 150
e 142 151
e 142 157
e 142 160
e 142 186
e 142 197
e 143 148
e 143 176
e 143 191
e 143 194
e 144 151
e 144 175
e 144 178
e 144 185
e 144 197
e 145 152
e 145 169
e 146 153
e 146 160
e 146 161
e 146 174
e 146 181
e 147 162
e 147 167
e 147 171
e 147 180
e 148 151
e 148 154
e 148 198
e 149 151
e 150 164
e 151 158
e 151 170
e 151 181
e 151 186
e 152 165
e 152 179
e 152 190
e 153 160
e 153 164
e 153 180
e 153 183
e 154 198
e 155 168
e 155 185
e 157 159
e 157 167
e 157 172
e 157 183
e 157 189
e 157 197
e 158 171
e 159 194
e 160 164
e 161 163
e 161 174
e 161 191
e 162 173
e 162 179
e 162 185
e 164 165
e 165 169
e 165 188
e 165 192
e 166 184
e 166 185
e 168 173
e 168 187
e 169 170
e 169 192
e 170 186
e 170 189
e 170 196
e 172 173
e 172 179
e 172 182
e 172 184
e 173 178
e 173 194
e 174 188
e 175 184
e 175 186
e 179 182
e 179 184
e 179 187
e 180 184
e 180 192
e 180 197
e 182 193
e 182 195
e 184 187
e 185 190
e 185 192
e 186 199
e 187 194
e 188 192
e 188 193
e 189 197
